FILENAME:   /home/mcs001/s132664/testsets/IP/miplib2017/neos-5149806-wieprz.mps.gz
SETTINGS:   settings_isopr_ostrowskidynamicbranching_avoidsubtreenodes
TIMELIMIT:  7200
OUTPUTNAME: final_miplib_symretope_if_extended_generating_set_cpx_v802__settings_isopr_ostrowskidynamicbranching_avoidsubtreenodes__3__
BINNAME:    bin/symmetries.linux.x86_64.gnu.opt.cpx
BASENAME:   neos-5149806-wieprz.mps.gz
SEED:       3
@01 /home/mcs001/s132664/testsets/IP/miplib2017/neos-5149806-wieprz.mps.gz ===========
@02 neos-5149806-wieprz.mps.gz
@03 1686581211
SCIP version 8.0.2 [precision: 8 byte] [memory: block] [mode: optimized] [LP solver: CPLEX 20.1.0.0] [GitHash: 5f0473c]
Copyright (C) 2002-2022 Konrad-Zuse-Zentrum fuer Informationstechnik Berlin (ZIB)

Symmetry handling routines - (c) Marc Pfetsch, Thomas Rehn, Christopher Hojny.
[GitHash: a1587cb]


Turned off presolver <gateextraction>.
reading parameter file <../settings/settings_isopr_ostrowskidynamicbranching_avoidsubtreenodes.set> ...

Changed settings:
limits/time = 7200
limits/restarts = 0
randomization/randomseedshift = 3
constraints/orbitope/sepafreq = -1
constraints/orbitope/propfreq = 1
presolving/gateextraction/maxrounds = 0
propagating/isoprune/avoidsubtreenodes = TRUE
useisoprune = TRUE


solving problem ...

original problem has 33753 variables (33750 bin, 3 int, 0 impl, 0 cont) and 65380 constraints
presolving:
(round 1, fast)       8875 del vars, 19875 del conss, 0 add conss, 0 chg bounds, 0 chg sides, 0 chg coeffs, 0 upgd conss, 0 impls, 3375 clqs
(round 2, exhaustive) 8875 del vars, 19875 del conss, 0 add conss, 3 chg bounds, 0 chg sides, 0 chg coeffs, 45497 upgd conss, 0 impls, 3375 clqs
(round 3, medium)     8907 del vars, 27907 del conss, 358238 add conss, 3 chg bounds, 0 chg sides, 0 chg coeffs, 45497 upgd conss, 34125 impls, 361581 clqs
   (95.6s) probing: 1000/24843 (4.0%) - 0 fixings, 0 aggregations, 23004 implications, 0 bound changes
   (95.7s) probing: 1001/24843 (4.0%) - 0 fixings, 0 aggregations, 23016 implications, 0 bound changes
   (95.7s) probing aborted: 1000/1000 successive useless probings
Required symmetry:			(1 bin, 0 int, 0 cont); (fixed: 0 bin, 1 int, 0 cont)
Time for symmetry detection:		0.88 	(matrix graph, 501240 nodes, 1625824 edges)
Number of generators:			0 	(max: 1500)
No symmetry found.
Total time for symmetry detection:	0.96

presolving (4 rounds: 4 fast, 3 medium, 2 exhaustive):
 8907 deleted vars, 27907 deleted constraints, 358238 added constraints, 3 tightened bounds, 0 added holes, 0 changed sides, 0 changed coefficients
 34125 implications, 384597 cliques
presolved problem has 24846 variables (24843 bin, 3 int, 0 impl, 0 cont) and 395712 constraints
  34125 constraints of type <varbound>
 361581 constraints of type <setppc>
      5 constraints of type <logicor>
      1 constraints of type <symmetries>
transformed objective value is always integral (scale: 1)
Presolving Time: 96.52
Skip isomorphism pruning, since no symmetries were found.

 time | node  | left  |LP iter|LP it/n|mem/heur|mdpt |frac |vars |cons |cols |rows |cuts |confs|strbr|  dualbound   | primalbound  |  gap   
p98.9s|     1 |     0 |     0 |     - |  clique|   0 |   - |  24k| 395k|  24k| 395k|   0 |   0 |   0 | 0.000000e+00 | 4.500000e+01 |    Inf 
p 105s|     1 |     0 |  2988 |     - | vbounds|   0 |   - |  24k| 395k|  24k| 395k|   0 |  14 |   0 | 0.000000e+00 | 4.400000e+01 |    Inf 
  276s|     1 |     0 | 23812 |     - |   847M |   0 |  22k|  24k| 395k|  24k| 395k|   0 |  46 |   0 | 2.772764e-02 | 4.400000e+01 |  Large 
 5212s|     1 |     0 | 41511 |     - |   935M |   0 |  15k|  24k| 395k|  24k| 395k|   0 |  59 |  38 | 1.500000e+01 | 4.400000e+01 | 193.33%
 5215s|     1 |     0 | 41511 |     - |   940M |   0 |  15k|  24k| 395k|  24k| 386k|   0 |  60 |  38 | 1.500000e+01 | 4.400000e+01 | 193.33%
 5233s|     1 |     0 | 41511 |     - |   989M |   0 |  15k|  24k| 395k|  24k| 386k|   0 |  60 |  38 | 1.500000e+01 | 4.400000e+01 | 193.33%
 5413s|     1 |     2 | 41511 |     - |   991M |   0 |  15k|  24k| 395k|  24k| 386k|   0 |  60 |  66 | 1.500000e+01 | 4.400000e+01 | 193.33%
r6744s|    40 |    38 | 95253 |1908.4 |shifting|  30 |   - |  24k| 395k|  24k| 386k|   0 |  60 |  66 | 1.500000e+01 | 3.900000e+01 | 160.00%
r7045s|    49 |    29 |111167 |1882.1 |shifting|  30 |   - |  24k| 395k|  24k| 386k|   0 |  60 |  66 | 1.500000e+01 | 3.500000e+01 | 133.33%
r7168s|    51 |    23 |119482 |1973.2 |shifting|  30 |   - |  24k| 395k|  24k| 386k|   0 |  60 |  66 | 1.500000e+01 | 3.100000e+01 | 106.67%

SCIP Status        : solving was interrupted [time limit reached]
Solving Time (sec) : 7200.01
Solving Nodes      : 52
Primal Bound       : +3.10000000000000e+01 (5 solutions)
Dual Bound         : +1.50000000000000e+01
Gap                : 106.67 %
@04 1686588427
